%pal nprocs 4 end
!RI-PWPB95 def2-TZVP def2-TZVP/C grid4 nofinalgrid 
*xyz 0 1
H 0.0 0.0 -1.0
H 0.0 0.0 1.0
*
